# 16270
param k := 6;
param n := 50;
param s := 1;
set E :=  (0,4) (0,6) (0,10) (0,31) (1,20) (1,38) (1,42) (1,49) (2,15) (3,18) (3,26) (3,41) (4,5) (4,17) (7,26) (8,10) (8,13) (8,48) (9,20) (9,36) (9,39) (10,17) (10,41) (11,21) (12,20) (12,34) (13,49) (14,21) (14,28) (15,29) (15,34) (16,23) (16,44) (17,46) (18,46) (19,42) (20,29) (21,24) (21,25) (22,30) (22,38) (22,39) (24,47) (25,33) (25,38) (25,46) (26,27) (27,48) (29,45) (30,43) (32,38) (32,46) (32,49) (35,47) (35,48) (35,49) (36,42) (37,43) (37,45) (37,49) (38,41) (40,42) (40,43) (40,44);